
n_res = 6;
rcap = [32, 32, 33, 30, 715, 617];
rtype = [1, 1, 1, 1, 2, 2];
n_tasks = 50;
modes =  [{1, 2, 3, 4, 5, 6, 7, 8, 9}, {10, 11, 12, 13, 14, 15, 16, 17, 18}, {19, 20, 21, 22, 23, 24, 25, 26, 27}, {28, 29, 30, 31, 32, 33, 34, 35, 36}, {37, 38, 39, 40, 41, 42, 43, 44, 45}, {46, 47, 48, 49, 50, 51, 52, 53, 54}, {55, 56, 57, 58, 59, 60, 61, 62, 63}, {64, 65, 66, 67, 68, 69, 70, 71, 72}, {73, 74, 75, 76, 77, 78, 79, 80, 81}, {82, 83, 84, 85, 86, 87, 88, 89, 90}, {91, 92, 93, 94, 95, 96, 97, 98, 99}, {100, 101, 102, 103, 104, 105, 106, 107, 108}, {109, 110, 111, 112, 113, 114, 115, 116, 117}, {118, 119, 120, 121, 122, 123, 124, 125, 126}, {127, 128, 129, 130, 131, 132, 133, 134, 135}, {136, 137, 138, 139, 140, 141, 142, 143, 144}, {145, 146, 147, 148, 149, 150, 151, 152, 153}, {154, 155, 156, 157, 158, 159, 160, 161, 162}, {163, 164, 165, 166, 167, 168, 169, 170, 171}, {172, 173, 174, 175, 176, 177, 178, 179, 180}, {181, 182, 183, 184, 185, 186, 187, 188, 189}, {190, 191, 192, 193, 194, 195, 196, 197, 198}, {199, 200, 201, 202, 203, 204, 205, 206, 207}, {208, 209, 210, 211, 212, 213, 214, 215, 216}, {217, 218, 219, 220, 221, 222, 223, 224, 225}, {226, 227, 228, 229, 230, 231, 232, 233, 234}, {235, 236, 237, 238, 239, 240, 241, 242, 243}, {244, 245, 246, 247, 248, 249, 250, 251, 252}, {253, 254, 255, 256, 257, 258, 259, 260, 261}, {262, 263, 264, 265, 266, 267, 268, 269, 270}, {271, 272, 273, 274, 275, 276, 277, 278, 279}, {280, 281, 282, 283, 284, 285, 286, 287, 288}, {289, 290, 291, 292, 293, 294, 295, 296, 297}, {298, 299, 300, 301, 302, 303, 304, 305, 306}, {307, 308, 309, 310, 311, 312, 313, 314, 315}, {316, 317, 318, 319, 320, 321, 322, 323, 324}, {325, 326, 327, 328, 329, 330, 331, 332, 333}, {334, 335, 336, 337, 338, 339, 340, 341, 342}, {343, 344, 345, 346, 347, 348, 349, 350, 351}, {352, 353, 354, 355, 356, 357, 358, 359, 360}, {361, 362, 363, 364, 365, 366, 367, 368, 369}, {370, 371, 372, 373, 374, 375, 376, 377, 378}, {379, 380, 381, 382, 383, 384, 385, 386, 387}, {388, 389, 390, 391, 392, 393, 394, 395, 396}, {397, 398, 399, 400, 401, 402, 403, 404, 405}, {406, 407, 408, 409, 410, 411, 412, 413, 414}, {415, 416, 417, 418, 419, 420, 421, 422, 423}, {424, 425, 426, 427, 428, 429, 430, 431, 432}, {433, 434, 435, 436, 437, 438, 439, 440, 441}, {442, 443, 444, 445, 446, 447, 448, 449, 450}];
succ =  [{49, 45, 41, 32, 31, 27, 26, 25, 20, 18}, {49, 46, 45, 43, 41, 32, 26, 25, 17}, {50, 46, 27, 25, 13}, {48, 47, 45, 44, 42, 41, 38, 32, 30, 29, 26, 20}, {22, 9}, {50, 47, 46, 41, 37, 31, 28, 27, 26, 25}, {50, 47, 37, 28, 26, 16}, {47, 46, 45, 44, 43, 42, 41, 39, 37, 30, 29, 26}, {49, 48, 46, 45, 42, 41, 38, 36, 27, 20}, {48, 43, 42, 41, 33, 17}, {45, 44, 42, 40, 39, 38, 37, 35, 31, 29, 28}, {45, 44, 41, 38, 25, 20}, {47, 45, 43, 41, 38, 26, 20}, {47, 46, 44, 38, 31, 30, 20}, {44, 43, 33, 20}, {46, 43, 41, 38, 34, 25}, {44, 38, 36, 20}, {44, 43, 40, 38, 37, 35, 34}, {41, 38, 37, 36, 35, 30}, {40, 39, 37, 35, 34}, {49, 48, 40, 38, 37}, {47, 39, 37, 34}, {34, 26}, {38, 35, 34}, {42, 29}, {36, 35}, {39, 35}, {43, 34}, {36}, {34}, {36}, {35}, {36}, {}, {}, {}, {}, {}, {}, {}, {}, {}, {}, {}, {}, {}, {}, {}, {}, {}];
n_opt = 450;
dur = [6, 7, 9, 10, 11, 15, 19, 21, 24, 1, 4, 10, 12, 16, 17, 20, 24, 30, 3, 6, 9, 10, 18, 19, 23, 25, 27, 2, 4, 9, 14, 18, 23, 26, 28, 29, 4, 8, 14, 18, 19, 21, 22, 28, 29, 1, 9, 11, 16, 19, 21, 27, 28, 30, 2, 3, 4, 7, 14, 20, 26, 28, 29, 2, 3, 4, 7, 12, 13, 14, 15, 28, 2, 4, 5, 7, 15, 16, 17, 18, 22, 2, 6, 7, 8, 15, 18, 22, 23, 26, 8, 9, 10, 11, 12, 13, 14, 15, 24, 5, 6, 7, 13, 14, 19, 21, 28, 29, 3, 5, 6, 7, 8, 9, 10, 15, 18, 2, 3, 4, 6, 7, 8, 9, 20, 22, 4, 7, 12, 15, 16, 19, 22, 23, 26, 1, 7, 11, 17, 19, 20, 22, 27, 28, 4, 14, 15, 17, 18, 22, 23, 26, 29, 7, 8, 9, 11, 17, 24, 25, 27, 28, 7, 11, 14, 15, 16, 17, 18, 19, 21, 1, 5, 8, 9, 10, 12, 15, 16, 19, 6, 8, 10, 11, 15, 21, 22, 26, 27, 2, 3, 5, 10, 11, 13, 14, 20, 27, 3, 6, 11, 14, 18, 19, 20, 21, 30, 11, 13, 16, 18, 20, 21, 24, 25, 30, 3, 4, 7, 8, 11, 12, 13, 19, 20, 6, 7, 8, 14, 15, 17, 23, 24, 28, 3, 3, 4, 5, 7, 8, 9, 18, 24, 2, 3, 11, 17, 18, 19, 23, 27, 29, 2, 3, 4, 5, 6, 10, 20, 21, 25, 2, 7, 10, 17, 22, 23, 27, 29, 30, 4, 13, 15, 18, 22, 24, 26, 27, 29, 2, 3, 5, 8, 9, 17, 18, 26, 29, 2, 8, 9, 10, 11, 14, 15, 16, 29, 5, 10, 11, 15, 18, 19, 22, 26, 28, 1, 20, 21, 22, 23, 24, 25, 26, 27, 2, 4, 8, 9, 10, 23, 24, 25, 26, 2, 7, 10, 11, 14, 22, 25, 26, 28, 5, 7, 12, 13, 14, 18, 19, 26, 30, 5, 6, 7, 10, 14, 15, 18, 20, 22, 3, 4, 5, 8, 14, 21, 23, 27, 29, 1, 5, 11, 14, 20, 21, 25, 26, 27, 14, 15, 21, 23, 26, 27, 28, 29, 30, 3, 4, 5, 7, 8, 9, 11, 12, 30, 15, 17, 21, 23, 24, 25, 26, 29, 30, 10, 15, 16, 17, 18, 19, 22, 23, 30, 1, 2, 3, 8, 12, 20, 24, 26, 29, 1, 4, 10, 11, 19, 22, 23, 27, 30, 1, 2, 5, 10, 20, 21, 24, 28, 29, 1, 2, 3, 6, 7, 9, 12, 18, 29, 4, 5, 7, 12, 14, 19, 21, 23, 24];
rreq = [|2, 1, 1, 1, 1, 1, 1, 1, 1, 3, 3, 3, 3, 3, 3, 3, 3, 3, 1, 1, 1, 1, 1, 1, 1, 1, 1, 4, 4, 4, 3, 3, 2, 1, 1, 1, 5, 4, 4, 3, 3, 2, 1, 1, 1, 5, 4, 4, 4, 4, 4, 4, 4, 4, 5, 4, 4, 3, 2, 2, 2, 1, 1, 3, 2, 2, 2, 1, 1, 1, 1, 1, 3, 3, 3, 3, 3, 3, 3, 3, 3, 4, 4, 4, 4, 3, 3, 3, 3, 3, 4, 3, 3, 3, 3, 2, 2, 2, 2, 4, 4, 4, 3, 3, 3, 3, 2, 2, 3, 3, 3, 3, 3, 3, 3, 3, 3, 3, 3, 3, 3, 3, 2, 2, 2, 2, 5, 4, 4, 4, 4, 3, 3, 3, 3, 4, 4, 4, 4, 4, 4, 4, 4, 4, 2, 1, 1, 1, 1, 1, 1, 1, 1, 4, 3, 3, 3, 2, 2, 1, 1, 1, 3, 2, 2, 2, 2, 2, 2, 2, 2, 4, 4, 4, 4, 4, 4, 4, 4, 4, 1, 1, 1, 1, 1, 1, 1, 1, 1, 4, 3, 3, 3, 3, 2, 2, 2, 2, 2, 2, 2, 2, 2, 2, 2, 2, 2, 5, 5, 5, 5, 5, 5, 5, 5, 5, 1, 1, 1, 1, 1, 1, 1, 1, 1, 3, 3, 3, 3, 3, 2, 2, 2, 2, 2, 2, 2, 2, 2, 1, 1, 1, 1, 5, 4, 4, 4, 4, 4, 4, 4, 4, 4, 4, 4, 4, 3, 3, 3, 3, 3, 3, 3, 3, 3, 3, 3, 3, 3, 3, 1, 1, 1, 1, 1, 1, 1, 1, 1, 2, 2, 2, 2, 2, 1, 1, 1, 1, 4, 3, 3, 3, 2, 2, 2, 1, 1, 2, 2, 2, 2, 2, 2, 2, 2, 2, 2, 2, 2, 2, 2, 2, 2, 2, 2, 2, 2, 2, 2, 2, 2, 2, 2, 2, 5, 5, 5, 5, 5, 5, 5, 5, 5, 2, 2, 2, 2, 1, 1, 1, 1, 1, 4, 4, 4, 4, 4, 4, 4, 4, 4, 4, 3, 3, 2, 2, 2, 2, 1, 1, 2, 2, 2, 2, 1, 1, 1, 1, 1, 2, 2, 2, 2, 2, 1, 1, 1, 1, 1, 1, 1, 1, 1, 1, 1, 1, 1, 4, 4, 4, 3, 3, 3, 3, 2, 2, 5, 4, 4, 3, 3, 3, 3, 2, 2, 4, 3, 3, 3, 2, 2, 1, 1, 1, 2, 2, 2, 2, 2, 2, 2, 2, 2, 3, 3, 3, 3, 2, 2, 2, 2, 2, 4, 4, 4, 4, 4, 3, 3, 3, 3, 4, 3, 3, 2, 2, 2, 1, 1, 1
 |5, 4, 4, 3, 2, 2, 2, 1, 1, 3, 3, 3, 3, 2, 2, 2, 1, 1, 2, 2, 2, 2, 2, 2, 2, 2, 2, 3, 2, 2, 2, 2, 1, 1, 1, 1, 5, 4, 4, 4, 3, 3, 2, 2, 2, 3, 2, 2, 2, 2, 1, 1, 1, 1, 3, 3, 3, 3, 2, 2, 2, 2, 2, 3, 3, 3, 2, 2, 2, 2, 1, 1, 2, 2, 2, 2, 2, 1, 1, 1, 1, 3, 3, 3, 2, 2, 2, 1, 1, 1, 5, 5, 5, 5, 5, 5, 5, 5, 5, 5, 5, 5, 5, 5, 5, 5, 5, 5, 3, 3, 3, 3, 2, 2, 2, 2, 2, 2, 1, 1, 1, 1, 1, 1, 1, 1, 4, 3, 3, 3, 3, 2, 2, 2, 2, 5, 4, 4, 4, 4, 4, 4, 4, 4, 3, 3, 3, 3, 2, 2, 2, 2, 2, 4, 4, 4, 4, 4, 4, 4, 4, 4, 2, 2, 2, 2, 2, 2, 2, 2, 2, 2, 1, 1, 1, 1, 1, 1, 1, 1, 3, 2, 2, 2, 2, 2, 2, 2, 2, 4, 3, 3, 3, 3, 2, 2, 2, 2, 5, 5, 5, 5, 5, 5, 5, 5, 5, 4, 3, 3, 3, 3, 3, 3, 3, 3, 1, 1, 1, 1, 1, 1, 1, 1, 1, 5, 4, 4, 4, 4, 4, 4, 4, 4, 5, 4, 4, 4, 3, 3, 3, 3, 3, 4, 4, 3, 3, 3, 2, 1, 1, 1, 3, 3, 3, 3, 3, 2, 2, 2, 2, 2, 1, 1, 1, 1, 1, 1, 1, 1, 5, 4, 4, 4, 4, 4, 4, 4, 4, 4, 4, 4, 4, 4, 4, 4, 4, 4, 4, 4, 4, 4, 4, 4, 4, 4, 4, 2, 2, 2, 2, 2, 2, 2, 2, 2, 3, 2, 2, 2, 2, 2, 2, 2, 2, 2, 2, 2, 2, 2, 2, 2, 2, 2, 4, 3, 3, 2, 2, 2, 2, 1, 1, 2, 2, 2, 2, 2, 2, 2, 2, 2, 5, 4, 4, 3, 3, 3, 2, 2, 2, 4, 4, 4, 3, 3, 3, 3, 2, 2, 3, 3, 3, 3, 3, 3, 3, 3, 3, 5, 4, 4, 3, 3, 2, 2, 1, 1, 1, 1, 1, 1, 1, 1, 1, 1, 1, 2, 2, 2, 2, 2, 2, 2, 2, 2, 4, 4, 4, 4, 4, 4, 4, 4, 4, 5, 4, 4, 4, 4, 4, 4, 4, 4, 3, 3, 3, 3, 2, 2, 1, 1, 1, 5, 4, 4, 4, 4, 3, 3, 3, 3, 3, 3, 3, 3, 3, 3, 3, 3, 3, 4, 4, 4, 4, 3, 3, 3, 3, 3
 |2, 2, 2, 2, 2, 2, 2, 2, 2, 4, 4, 4, 4, 3, 3, 3, 3, 3, 5, 4, 4, 4, 4, 3, 3, 3, 3, 3, 2, 2, 2, 2, 2, 2, 2, 2, 2, 1, 1, 1, 1, 1, 1, 1, 1, 2, 1, 1, 1, 1, 1, 1, 1, 1, 5, 4, 4, 4, 4, 4, 4, 4, 4, 4, 4, 4, 4, 4, 4, 4, 4, 4, 3, 3, 3, 3, 3, 3, 3, 3, 3, 3, 3, 3, 2, 2, 2, 2, 1, 1, 3, 3, 3, 3, 3, 3, 3, 3, 3, 4, 3, 3, 3, 3, 3, 3, 3, 3, 5, 4, 3, 3, 3, 2, 1, 1, 1, 5, 4, 4, 3, 3, 3, 3, 2, 2, 2, 2, 2, 2, 2, 2, 2, 2, 2, 2, 2, 2, 2, 2, 2, 2, 2, 2, 4, 4, 4, 4, 3, 3, 3, 2, 2, 4, 3, 3, 2, 2, 2, 2, 1, 1, 4, 3, 3, 3, 3, 2, 2, 2, 2, 5, 4, 4, 4, 3, 3, 2, 2, 2, 4, 4, 4, 4, 3, 3, 2, 2, 2, 3, 3, 3, 3, 3, 2, 2, 2, 2, 5, 4, 4, 3, 3, 3, 3, 2, 2, 4, 3, 3, 3, 3, 3, 3, 3, 3, 3, 2, 2, 2, 2, 2, 2, 2, 2, 5, 4, 4, 4, 4, 3, 3, 3, 3, 5, 4, 4, 4, 3, 3, 3, 2, 2, 3, 3, 3, 3, 2, 2, 2, 1, 1, 4, 4, 3, 3, 2, 2, 1, 1, 1, 4, 4, 4, 4, 3, 3, 3, 3, 3, 4, 4, 4, 4, 4, 3, 3, 3, 3, 3, 3, 3, 3, 3, 3, 3, 3, 3, 1, 1, 1, 1, 1, 1, 1, 1, 1, 5, 4, 4, 4, 4, 3, 3, 3, 3, 1, 1, 1, 1, 1, 1, 1, 1, 1, 4, 4, 4, 4, 3, 3, 2, 2, 2, 1, 1, 1, 1, 1, 1, 1, 1, 1, 3, 3, 3, 3, 2, 2, 1, 1, 1, 2, 1, 1, 1, 1, 1, 1, 1, 1, 3, 2, 2, 2, 2, 2, 2, 2, 2, 4, 4, 4, 4, 3, 3, 2, 2, 2, 3, 2, 2, 2, 2, 2, 2, 2, 2, 3, 3, 3, 3, 3, 3, 3, 3, 3, 4, 4, 4, 4, 4, 4, 4, 4, 4, 2, 2, 2, 2, 2, 2, 2, 2, 2, 5, 4, 4, 4, 4, 4, 4, 4, 4, 3, 3, 3, 3, 3, 3, 3, 3, 3, 4, 3, 3, 3, 2, 2, 2, 1, 1, 5, 4, 4, 4, 4, 4, 4, 4, 4, 2, 1, 1, 1, 1, 1, 1, 1, 1
 |5, 4, 4, 4, 4, 3, 3, 3, 3, 4, 4, 4, 4, 4, 3, 3, 3, 3, 4, 4, 4, 4, 4, 3, 3, 3, 3, 2, 2, 2, 2, 1, 1, 1, 1, 1, 2, 2, 2, 2, 2, 2, 2, 2, 2, 5, 5, 5, 5, 5, 5, 5, 5, 5, 2, 2, 2, 2, 1, 1, 1, 1, 1, 3, 3, 3, 3, 2, 2, 2, 2, 2, 5, 5, 5, 5, 5, 5, 5, 5, 5, 3, 2, 2, 2, 2, 2, 2, 2, 2, 1, 1, 1, 1, 1, 1, 1, 1, 1, 4, 4, 3, 3, 2, 2, 2, 1, 1, 4, 4, 4, 4, 4, 3, 3, 3, 3, 5, 4, 4, 4, 4, 3, 3, 3, 3, 2, 2, 2, 2, 2, 2, 2, 2, 2, 5, 5, 5, 5, 5, 5, 5, 5, 5, 4, 3, 3, 3, 3, 2, 2, 2, 2, 5, 5, 5, 5, 5, 5, 5, 5, 5, 4, 3, 3, 3, 3, 3, 3, 3, 3, 4, 4, 4, 4, 3, 3, 3, 3, 3, 4, 4, 4, 3, 2, 2, 2, 1, 1, 3, 3, 3, 3, 3, 3, 3, 3, 3, 3, 3, 3, 3, 3, 3, 3, 3, 3, 2, 2, 2, 2, 2, 1, 1, 1, 1, 4, 4, 4, 4, 4, 3, 3, 3, 3, 1, 1, 1, 1, 1, 1, 1, 1, 1, 2, 2, 2, 2, 2, 1, 1, 1, 1, 2, 2, 2, 2, 1, 1, 1, 1, 1, 1, 1, 1, 1, 1, 1, 1, 1, 1, 2, 2, 2, 2, 2, 2, 2, 2, 2, 3, 2, 2, 2, 1, 1, 1, 1, 1, 4, 4, 4, 4, 4, 4, 4, 4, 4, 2, 2, 2, 2, 2, 2, 2, 2, 2, 5, 5, 5, 5, 5, 5, 5, 5, 5, 4, 4, 4, 3, 2, 2, 2, 1, 1, 2, 2, 2, 2, 2, 2, 2, 2, 2, 4, 4, 4, 4, 4, 4, 4, 4, 4, 3, 3, 3, 3, 2, 2, 2, 2, 2, 2, 2, 2, 2, 2, 2, 2, 2, 2, 3, 3, 3, 3, 3, 3, 3, 3, 3, 5, 4, 4, 4, 3, 3, 3, 3, 3, 3, 2, 2, 2, 1, 1, 1, 1, 1, 4, 3, 3, 3, 3, 3, 3, 3, 3, 5, 4, 4, 4, 3, 3, 3, 2, 2, 4, 4, 4, 4, 4, 4, 4, 4, 4, 2, 2, 2, 2, 2, 2, 2, 2, 2, 3, 2, 2, 2, 1, 1, 1, 1, 1, 1, 1, 1, 1, 1, 1, 1, 1, 1, 5, 5, 5, 5, 5, 5, 5, 5, 5, 1, 1, 1, 1, 1, 1, 1, 1, 1
 |20, 18, 15, 12, 10, 9, 6, 5, 3, 17, 16, 14, 12, 11, 10, 9, 6, 6, 22, 22, 18, 14, 12, 11, 9, 4, 3, 10, 9, 9, 9, 8, 8, 8, 8, 8, 27, 26, 26, 26, 26, 25, 25, 25, 25, 17, 16, 16, 16, 16, 16, 16, 16, 16, 12, 12, 10, 8, 8, 6, 4, 3, 3, 25, 24, 23, 20, 19, 19, 17, 14, 13, 24, 22, 20, 18, 16, 13, 12, 10, 7, 22, 18, 17, 15, 14, 11, 9, 7, 7, 11, 10, 10, 10, 9, 9, 9, 9, 9, 20, 20, 19, 19, 19, 18, 17, 17, 17, 22, 22, 22, 22, 21, 21, 20, 20, 20, 24, 23, 20, 19, 17, 15, 12, 10, 9, 25, 24, 23, 23, 21, 20, 20, 19, 18, 16, 15, 15, 15, 14, 14, 13, 12, 12, 29, 28, 28, 26, 26, 24, 23, 22, 22, 29, 24, 20, 17, 15, 12, 9, 7, 2, 25, 24, 23, 22, 21, 20, 20, 18, 17, 17, 14, 14, 12, 12, 10, 9, 7, 6, 25, 25, 24, 22, 22, 21, 20, 19, 18, 19, 19, 18, 17, 16, 16, 15, 15, 14, 25, 21, 21, 17, 15, 13, 12, 9, 8, 26, 26, 25, 24, 23, 23, 22, 22, 21, 25, 24, 24, 23, 23, 23, 22, 22, 22, 25, 24, 23, 23, 21, 20, 20, 19, 17, 11, 11, 11, 10, 10, 10, 10, 9, 9, 11, 10, 10, 9, 7, 6, 5, 5, 4, 25, 21, 21, 15, 15, 11, 9, 6, 4, 11, 11, 11, 11, 11, 11, 11, 11, 11, 6, 5, 5, 5, 4, 3, 3, 2, 2, 29, 29, 28, 28, 28, 27, 27, 26, 26, 29, 29, 29, 28, 27, 27, 26, 26, 26, 24, 22, 22, 21, 18, 17, 17, 15, 15, 8, 8, 8, 8, 7, 7, 7, 7, 7, 12, 12, 12, 11, 10, 10, 9, 9, 9, 13, 12, 12, 11, 10, 7, 7, 5, 4, 26, 25, 25, 24, 24, 24, 24, 23, 23, 11, 9, 7, 7, 5, 5, 4, 2, 1, 24, 22, 20, 17, 15, 15, 13, 12, 9, 28, 26, 23, 22, 19, 19, 17, 15, 13, 28, 28, 27, 26, 26, 25, 25, 25, 24, 22, 22, 21, 19, 18, 18, 16, 15, 15, 19, 19, 17, 15, 13, 13, 10, 9, 8, 23, 22, 20, 19, 19, 17, 16, 14, 14, 26, 26, 26, 26, 26, 26, 26, 26, 26, 18, 16, 16, 15, 13, 12, 12, 11, 10, 21, 18, 17, 15, 13, 11, 11, 9, 8, 22, 22, 20, 20, 19, 18, 17, 17, 16, 29, 23, 20, 19, 14, 12, 8, 7, 2
 |28, 24, 23, 20, 18, 15, 15, 10, 10, 28, 27, 26, 26, 25, 24, 24, 23, 22, 25, 24, 20, 19, 14, 11, 9, 6, 2, 27, 24, 21, 19, 15, 13, 13, 10, 9, 10, 10, 9, 10, 9, 9, 9, 8, 7, 8, 7, 6, 5, 4, 7, 6, 5, 4, 25, 23, 21, 19, 16, 14, 10, 7, 5, 22, 20, 18, 18, 17, 15, 14, 14, 12, 4, 4, 4, 4, 3, 3, 3, 3, 3, 23, 23, 21, 17, 15, 13, 10, 8, 6, 19, 18, 17, 15, 14, 14, 13, 11, 10, 19, 19, 18, 18, 17, 16, 16, 14, 13, 26, 25, 23, 20, 18, 18, 14, 12, 11, 10, 10, 10, 10, 9, 9, 9, 8, 8, 10, 10, 9, 7, 7, 7, 6, 4, 4, 24, 23, 22, 21, 22, 21, 21, 22, 21, 26, 23, 22, 20, 18, 17, 16, 15, 12, 13, 12, 12, 12, 11, 10, 10, 8, 8, 21, 21, 20, 19, 18, 18, 17, 15, 15, 9, 8, 7, 8, 8, 8, 8, 8, 8, 27, 25, 22, 19, 16, 14, 11, 8, 7, 16, 16, 13, 13, 11, 10, 9, 6, 6, 24, 20, 19, 17, 16, 13, 13, 11, 8, 25, 23, 21, 19, 15, 15, 13, 10, 7, 9, 9, 8, 6, 5, 4, 3, 2, 1, 22, 21, 19, 16, 13, 12, 9, 9, 6, 14, 15, 14, 14, 14, 14, 13, 13, 12, 29, 25, 22, 18, 16, 15, 12, 10, 7, 25, 24, 18, 15, 13, 10, 9, 4, 3, 20, 19, 18, 17, 16, 15, 14, 13, 12, 24, 21, 20, 16, 16, 11, 10, 9, 7, 10, 9, 7, 6, 5, 5, 3, 2, 1, 20, 16, 14, 12, 11, 8, 8, 6, 2, 27, 23, 19, 16, 14, 13, 9, 4, 1, 22, 20, 18, 17, 15, 14, 13, 10, 9, 24, 23, 22, 22, 21, 20, 19, 17, 16, 22, 22, 21, 21, 21, 21, 20, 20, 20, 28, 26, 25, 24, 24, 22, 21, 21, 19, 29, 26, 21, 20, 17, 15, 12, 6, 5, 12, 11, 10, 10, 10, 9, 8, 8, 8, 21, 20, 20, 19, 19, 18, 18, 16, 16, 21, 21, 20, 19, 18, 18, 17, 17, 16, 26, 25, 23, 20, 20, 19, 17, 16, 14, 28, 27, 27, 26, 26, 25, 25, 24, 23, 16, 14, 13, 12, 10, 8, 8, 6, 4, 10, 9, 8, 7, 8, 7, 6, 5, 4, 22, 21, 20, 19, 18, 17, 16, 16, 15, 11, 11, 10, 8, 8, 7, 6, 5, 5, 25, 24, 24, 23, 23, 23, 23, 22, 23, 26, 26, 22, 20, 15, 14, 11, 7, 4|];